c " random instance " 
p edges 200 2178
e 1 18
e 1 20
e 1 25
e 1 39
e 1 42
e 1 55
e 1 65
e 1 76
e 1 95
e 1 121
e 1 123
e 1 126
e 1 133
e 1 160
e 1 171
e 1 185
e 1 192
e 1 196
e 1 199
e 2 6
e 2 18
e 2 36
e 2 41
e 2 54
e 2 55
e 2 67
e 2 77
e 2 80
e 2 93
e 2 97
e 2 123
e 2 132
e 2 144
e 2 147
e 2 151
e 2 158
e 2 165
e 2 167
e 2 172
e 2 195
e 3 5
e 3 63
e 3 72
e 3 78
e 3 85
e 3 97
e 3 103
e 3 108
e 3 125
e 3 146
e 3 153
e 3 160
e 3 177
e 4 6
e 4 24
e 4 27
e 4 35
e 4 46
e 4 51
e 4 74
e 4 81
e 4 87
e 4 90
e 4 93
e 4 94
e 4 97
e 4 103
e 4 112
e 4 121
e 4 123
e 4 135
e 4 136
e 4 139
e 4 146
e 4 174
e 4 177
e 4 181
e 5 8
e 5 11
e 5 22
e 5 35
e 5 71
e 5 87
e 5 88
e 5 90
e 5 101
e 5 102
e 5 110
e 5 112
e 5 121
e 5 128
e 5 138
e 5 146
e 5 166
e 5 169
e 5 176
e 5 185
e 5 198
e 6 12
e 6 16
e 6 19
e 6 27
e 6 31
e 6 37
e 6 41
e 6 42
e 6 48
e 6 56
e 6 57
e 6 60
e 6 65
e 6 70
e 6 71
e 6 75
e 6 78
e 6 83
e 6 99
e 6 117
e 6 139
e 6 143
e 6 165
e 6 173
e 6 188
e 6 189
e 7 8
e 7 14
e 7 17
e 7 19
e 7 20
e 7 31
e 7 34
e 7 36
e 7 47
e 7 51
e 7 55
e 7 61
e 7 62
e 7 76
e 7 79
e 7 81
e 7 85
e 7 87
e 7 94
e 7 98
e 7 104
e 7 119
e 7 134
e 7 136
e 7 139
e 7 149
e 7 180
e 7 182
e 7 187
e 7 193
e 7 199
e 8 12
e 8 36
e 8 42
e 8 58
e 8 67
e 8 88
e 8 92
e 8 103
e 8 108
e 8 111
e 8 121
e 8 136
e 8 141
e 8 143
e 8 151
e 8 157
e 8 166
e 8 170
e 8 179
e 8 184
e 8 188
e 8 191
e 9 14
e 9 16
e 9 18
e 9 27
e 9 32
e 9 38
e 9 49
e 9 67
e 9 68
e 9 93
e 9 99
e 9 100
e 9 126
e 9 134
e 9 139
e 9 161
e 9 173
e 9 190
e 9 196
e 9 197
e 10 14
e 10 16
e 10 29
e 10 37
e 10 38
e 10 41
e 10 45
e 10 87
e 10 91
e 10 92
e 10 105
e 10 106
e 10 107
e 10 114
e 10 119
e 10 120
e 10 124
e 10 138
e 10 141
e 10 163
e 10 170
e 10 174
e 10 185
e 10 188
e 10 196
e 11 14
e 11 19
e 11 20
e 11 23
e 11 33
e 11 62
e 11 67
e 11 78
e 11 83
e 11 88
e 11 100
e 11 101
e 11 107
e 11 131
e 11 141
e 11 151
e 11 152
e 11 161
e 11 162
e 11 172
e 11 173
e 11 179
e 11 185
e 11 186
e 11 196
e 11 199
e 12 13
e 12 19
e 12 29
e 12 53
e 12 54
e 12 76
e 12 105
e 12 133
e 12 136
e 12 141
e 12 146
e 12 152
e 12 159
e 12 173
e 12 183
e 12 196
e 12 198
e 12 199
e 13 18
e 13 39
e 13 46
e 13 47
e 13 50
e 13 53
e 13 69
e 13 70
e 13 90
e 13 95
e 13 108
e 13 111
e 13 129
e 13 130
e 13 134
e 13 139
e 13 147
e 13 151
e 13 158
e 13 182
e 13 184
e 14 27
e 14 37
e 14 43
e 14 57
e 14 61
e 14 63
e 14 78
e 14 84
e 14 97
e 14 108
e 14 129
e 14 133
e 14 150
e 14 152
e 14 157
e 14 168
e 14 191
e 14 196
e 14 197
e 15 26
e 15 30
e 15 38
e 15 49
e 15 76
e 15 82
e 15 93
e 15 112
e 15 123
e 15 129
e 15 135
e 15 139
e 15 141
e 15 152
e 15 162
e 15 169
e 15 172
e 15 188
e 15 191
e 15 197
e 16 28
e 16 33
e 16 46
e 16 56
e 16 79
e 16 83
e 16 86
e 16 97
e 16 107
e 16 118
e 16 121
e 16 123
e 16 136
e 16 144
e 16 170
e 16 183
e 16 187
e 17 61
e 17 90
e 17 93
e 17 96
e 17 109
e 17 111
e 17 113
e 17 114
e 17 119
e 17 121
e 17 165
e 17 185
e 17 187
e 17 189
e 18 32
e 18 41
e 18 53
e 18 63
e 18 75
e 18 89
e 18 92
e 18 135
e 18 151
e 18 161
e 18 167
e 18 170
e 18 176
e 18 178
e 18 182
e 18 191
e 18 196
e 18 198
e 19 24
e 19 46
e 19 55
e 19 58
e 19 63
e 19 74
e 19 82
e 19 84
e 19 115
e 19 119
e 19 120
e 19 131
e 19 136
e 19 142
e 19 144
e 19 145
e 19 146
e 19 147
e 19 153
e 19 163
e 19 176
e 19 188
e 19 190
e 19 197
e 20 25
e 20 32
e 20 33
e 20 35
e 20 40
e 20 45
e 20 75
e 20 93
e 20 106
e 20 135
e 20 138
e 20 143
e 20 161
e 20 172
e 20 186
e 20 195
e 21 38
e 21 40
e 21 57
e 21 89
e 21 93
e 21 95
e 21 98
e 21 105
e 21 119
e 21 123
e 21 137
e 21 146
e 21 154
e 21 176
e 21 178
e 21 183
e 21 184
e 21 185
e 21 187
e 21 190
e 22 25
e 22 27
e 22 33
e 22 51
e 22 61
e 22 64
e 22 65
e 22 73
e 22 81
e 22 82
e 22 83
e 22 93
e 22 115
e 22 118
e 22 127
e 22 133
e 22 153
e 22 157
e 22 170
e 22 179
e 22 194
e 22 195
e 23 28
e 23 37
e 23 69
e 23 70
e 23 71
e 23 73
e 23 77
e 23 95
e 23 111
e 23 114
e 23 125
e 23 126
e 23 133
e 23 137
e 23 144
e 23 155
e 23 160
e 23 165
e 23 188
e 23 199
e 24 26
e 24 39
e 24 43
e 24 58
e 24 64
e 24 69
e 24 73
e 24 76
e 24 95
e 24 100
e 24 102
e 24 104
e 24 108
e 24 112
e 24 114
e 24 115
e 24 116
e 24 120
e 24 121
e 24 137
e 24 148
e 24 150
e 24 167
e 24 179
e 24 192
e 25 36
e 25 37
e 25 45
e 25 48
e 25 63
e 25 67
e 25 74
e 25 90
e 25 100
e 25 113
e 25 115
e 25 124
e 25 125
e 25 140
e 25 150
e 25 159
e 25 169
e 25 189
e 25 190
e 25 198
e 26 38
e 26 40
e 26 61
e 26 65
e 26 74
e 26 75
e 26 77
e 26 78
e 26 83
e 26 88
e 26 93
e 26 94
e 26 106
e 26 118
e 26 133
e 26 134
e 26 142
e 26 149
e 26 185
e 26 189
e 27 31
e 27 33
e 27 42
e 27 44
e 27 47
e 27 52
e 27 72
e 27 79
e 27 80
e 27 81
e 27 85
e 27 97
e 27 115
e 27 117
e 27 120
e 27 139
e 27 161
e 27 163
e 27 168
e 27 169
e 27 173
e 27 175
e 27 179
e 27 188
e 27 196
e 27 197
e 27 198
e 28 52
e 28 63
e 28 64
e 28 71
e 28 93
e 28 94
e 28 96
e 28 99
e 28 104
e 28 110
e 28 117
e 28 130
e 28 131
e 28 139
e 28 145
e 28 175
e 29 55
e 29 56
e 29 57
e 29 58
e 29 72
e 29 73
e 29 84
e 29 87
e 29 89
e 29 90
e 29 104
e 29 121
e 29 124
e 29 125
e 29 134
e 29 154
e 29 159
e 29 165
e 29 168
e 29 170
e 29 181
e 29 191
e 29 192
e 29 193
e 30 34
e 30 50
e 30 62
e 30 89
e 30 101
e 30 115
e 30 129
e 30 135
e 30 164
e 30 171
e 30 176
e 30 180
e 31 37
e 31 41
e 31 42
e 31 51
e 31 65
e 31 73
e 31 79
e 31 80
e 31 83
e 31 85
e 31 97
e 31 119
e 31 120
e 31 143
e 31 147
e 31 151
e 31 160
e 31 165
e 31 173
e 31 184
e 31 188
e 31 190
e 31 196
e 31 199
e 32 45
e 32 49
e 32 55
e 32 72
e 32 74
e 32 87
e 32 99
e 32 109
e 32 116
e 32 143
e 32 158
e 32 163
e 32 172
e 32 176
e 32 186
e 32 190
e 32 196
e 33 54
e 33 57
e 33 66
e 33 71
e 33 135
e 33 136
e 33 145
e 33 153
e 33 158
e 33 159
e 33 161
e 33 164
e 33 170
e 33 180
e 33 184
e 33 190
e 33 194
e 33 197
e 34 37
e 34 52
e 34 53
e 34 54
e 34 68
e 34 89
e 34 95
e 34 104
e 34 113
e 34 124
e 34 127
e 34 128
e 34 133
e 34 164
e 34 183
e 34 184
e 34 185
e 34 192
e 34 193
e 35 37
e 35 39
e 35 44
e 35 49
e 35 61
e 35 69
e 35 74
e 35 84
e 35 87
e 35 89
e 35 91
e 35 98
e 35 112
e 35 119
e 35 121
e 35 131
e 35 133
e 35 146
e 35 154
e 35 168
e 35 173
e 35 177
e 35 179
e 35 186
e 35 189
e 36 46
e 36 49
e 36 60
e 36 82
e 36 95
e 36 123
e 36 141
e 36 147
e 36 151
e 36 191
e 36 194
e 37 45
e 37 57
e 37 78
e 37 87
e 37 95
e 37 96
e 37 100
e 37 106
e 37 139
e 37 145
e 37 152
e 37 166
e 37 168
e 37 169
e 37 180
e 37 181
e 37 182
e 37 187
e 37 198
e 38 47
e 38 48
e 38 56
e 38 67
e 38 71
e 38 103
e 38 113
e 38 123
e 38 124
e 38 127
e 38 150
e 38 158
e 38 166
e 38 168
e 38 174
e 38 182
e 38 193
e 39 44
e 39 60
e 39 68
e 39 78
e 39 106
e 39 109
e 39 137
e 39 153
e 39 165
e 39 169
e 39 173
e 39 183
e 39 191
e 39 194
e 39 195
e 40 52
e 40 53
e 40 57
e 40 63
e 40 68
e 40 78
e 40 98
e 40 100
e 40 106
e 40 107
e 40 120
e 40 126
e 40 130
e 40 139
e 40 140
e 40 155
e 40 175
e 40 176
e 40 192
e 41 42
e 41 46
e 41 47
e 41 56
e 41 59
e 41 83
e 41 87
e 41 90
e 41 109
e 41 114
e 41 122
e 41 128
e 41 133
e 41 141
e 41 152
e 41 159
e 41 177
e 41 197
e 42 54
e 42 66
e 42 72
e 42 82
e 42 86
e 42 109
e 42 112
e 42 114
e 42 124
e 42 133
e 42 136
e 42 140
e 42 154
e 42 160
e 42 171
e 42 175
e 42 183
e 42 195
e 43 52
e 43 59
e 43 77
e 43 96
e 43 97
e 43 100
e 43 105
e 43 111
e 43 123
e 43 124
e 43 133
e 43 135
e 43 141
e 43 147
e 43 165
e 43 167
e 43 174
e 43 182
e 43 195
e 43 200
e 44 66
e 44 69
e 44 74
e 44 84
e 44 112
e 44 125
e 44 145
e 44 147
e 44 157
e 44 166
e 44 173
e 44 182
e 44 197
e 44 198
e 44 199
e 45 53
e 45 56
e 45 60
e 45 66
e 45 83
e 45 91
e 45 95
e 45 112
e 45 113
e 45 114
e 45 121
e 45 129
e 45 134
e 45 135
e 45 164
e 45 166
e 45 169
e 45 177
e 45 182
e 45 184
e 45 197
e 45 200
e 46 60
e 46 62
e 46 96
e 46 98
e 46 101
e 46 105
e 46 106
e 46 115
e 46 116
e 46 121
e 46 132
e 46 133
e 46 150
e 46 161
e 46 162
e 46 188
e 46 200
e 47 55
e 47 57
e 47 60
e 47 71
e 47 78
e 47 84
e 47 106
e 47 112
e 47 121
e 47 127
e 47 128
e 47 130
e 47 134
e 47 140
e 47 146
e 47 149
e 47 153
e 47 166
e 47 180
e 47 192
e 47 195
e 47 197
e 48 53
e 48 95
e 48 97
e 48 107
e 48 119
e 48 126
e 48 134
e 48 139
e 48 143
e 48 173
e 48 195
e 48 199
e 49 70
e 49 72
e 49 73
e 49 82
e 49 90
e 49 99
e 49 105
e 49 112
e 49 126
e 49 128
e 49 132
e 49 145
e 49 166
e 49 169
e 49 180
e 50 55
e 50 57
e 50 63
e 50 65
e 50 69
e 50 80
e 50 81
e 50 94
e 50 104
e 50 105
e 50 123
e 50 125
e 50 137
e 50 147
e 50 154
e 50 160
e 50 169
e 50 191
e 51 65
e 51 70
e 51 71
e 51 96
e 51 128
e 51 131
e 51 132
e 51 136
e 51 140
e 51 150
e 51 153
e 51 172
e 51 187
e 51 196
e 52 54
e 52 67
e 52 76
e 52 111
e 52 116
e 52 130
e 52 139
e 52 161
e 52 163
e 52 169
e 52 177
e 53 63
e 53 119
e 53 126
e 53 130
e 53 140
e 53 148
e 53 149
e 53 158
e 53 168
e 53 174
e 53 191
e 54 72
e 54 77
e 54 99
e 54 111
e 54 118
e 54 122
e 54 125
e 54 128
e 54 131
e 54 137
e 54 143
e 54 145
e 54 157
e 54 177
e 55 65
e 55 77
e 55 87
e 55 97
e 55 99
e 55 115
e 55 120
e 55 133
e 55 142
e 55 175
e 55 187
e 55 193
e 55 194
e 55 199
e 56 93
e 56 102
e 56 107
e 56 143
e 56 159
e 56 169
e 56 183
e 56 185
e 56 199
e 56 200
e 57 84
e 57 94
e 57 101
e 57 106
e 57 107
e 57 108
e 57 123
e 57 130
e 57 143
e 57 153
e 57 161
e 57 174
e 57 193
e 58 69
e 58 70
e 58 72
e 58 77
e 58 78
e 58 93
e 58 116
e 58 124
e 58 147
e 58 155
e 58 157
e 58 160
e 58 180
e 58 188
e 59 60
e 59 64
e 59 68
e 59 73
e 59 89
e 59 99
e 59 103
e 59 106
e 59 131
e 59 132
e 59 149
e 59 154
e 59 185
e 59 195
e 60 73
e 60 81
e 60 82
e 60 90
e 60 95
e 60 102
e 60 109
e 60 110
e 60 113
e 60 119
e 60 120
e 60 140
e 60 143
e 60 162
e 60 181
e 61 63
e 61 74
e 61 77
e 61 87
e 61 98
e 61 105
e 61 116
e 61 124
e 61 141
e 61 162
e 61 165
e 61 171
e 61 173
e 61 184
e 61 196
e 62 65
e 62 74
e 62 82
e 62 84
e 62 86
e 62 104
e 62 111
e 62 112
e 62 114
e 62 120
e 62 124
e 62 127
e 62 128
e 62 162
e 62 166
e 62 188
e 63 65
e 63 69
e 63 73
e 63 76
e 63 82
e 63 85
e 63 89
e 63 99
e 63 106
e 63 122
e 63 123
e 63 135
e 63 137
e 63 140
e 63 145
e 63 150
e 63 151
e 63 172
e 63 180
e 63 189
e 63 196
e 63 200
e 64 66
e 64 91
e 64 99
e 64 107
e 64 125
e 64 129
e 64 137
e 64 138
e 64 139
e 64 149
e 64 167
e 64 168
e 64 172
e 64 179
e 65 82
e 65 96
e 65 97
e 65 105
e 65 106
e 65 111
e 65 118
e 65 131
e 65 170
e 65 172
e 65 187
e 65 192
e 65 193
e 65 196
e 65 199
e 66 68
e 66 71
e 66 84
e 66 96
e 66 105
e 66 107
e 66 123
e 66 124
e 66 145
e 66 156
e 66 169
e 66 177
e 66 178
e 66 198
e 66 200
e 67 78
e 67 88
e 67 89
e 67 119
e 67 130
e 67 132
e 67 133
e 67 140
e 67 155
e 67 158
e 67 159
e 67 168
e 67 170
e 67 177
e 67 192
e 68 85
e 68 98
e 68 102
e 68 108
e 68 109
e 68 110
e 68 122
e 68 131
e 68 132
e 68 154
e 68 161
e 68 162
e 68 166
e 68 183
e 68 187
e 68 200
e 69 72
e 69 74
e 69 84
e 69 91
e 69 92
e 69 103
e 69 132
e 69 134
e 69 141
e 69 149
e 69 151
e 69 159
e 69 188
e 70 78
e 70 79
e 70 89
e 70 96
e 70 105
e 70 114
e 70 121
e 70 124
e 70 125
e 70 128
e 70 156
e 70 158
e 70 174
e 70 176
e 70 177
e 70 198
e 70 199
e 71 74
e 71 98
e 71 100
e 71 101
e 71 110
e 71 113
e 71 133
e 71 138
e 71 144
e 71 155
e 71 160
e 71 162
e 71 168
e 71 187
e 72 84
e 72 112
e 72 120
e 72 122
e 72 132
e 72 134
e 72 139
e 72 140
e 72 142
e 72 145
e 72 150
e 72 160
e 72 165
e 72 166
e 72 184
e 73 75
e 73 87
e 73 90
e 73 98
e 73 99
e 73 117
e 73 119
e 73 130
e 73 131
e 73 149
e 73 152
e 73 158
e 73 168
e 73 176
e 73 185
e 73 187
e 73 188
e 73 191
e 74 79
e 74 96
e 74 112
e 74 115
e 74 116
e 74 119
e 74 122
e 74 135
e 74 146
e 74 162
e 74 171
e 74 172
e 74 177
e 74 180
e 74 182
e 74 186
e 75 83
e 75 85
e 75 102
e 75 112
e 75 126
e 75 130
e 75 136
e 75 144
e 75 147
e 75 150
e 75 152
e 75 160
e 75 162
e 75 168
e 75 182
e 75 187
e 75 198
e 76 79
e 76 82
e 76 87
e 76 91
e 76 92
e 76 110
e 76 118
e 76 122
e 76 126
e 76 128
e 76 138
e 76 140
e 76 145
e 76 168
e 76 172
e 76 174
e 76 176
e 76 184
e 76 189
e 76 192
e 77 98
e 77 106
e 77 131
e 77 144
e 77 149
e 77 152
e 77 158
e 77 185
e 77 188
e 77 192
e 78 101
e 78 109
e 78 111
e 78 112
e 78 131
e 78 137
e 78 152
e 78 168
e 78 175
e 78 178
e 78 179
e 79 85
e 79 86
e 79 101
e 79 124
e 79 128
e 79 136
e 79 137
e 79 139
e 79 144
e 79 148
e 79 163
e 79 166
e 79 172
e 79 174
e 79 179
e 79 184
e 79 191
e 80 96
e 80 99
e 80 106
e 80 107
e 80 128
e 80 148
e 80 155
e 80 165
e 80 183
e 80 186
e 80 200
e 81 86
e 81 91
e 81 92
e 81 95
e 81 98
e 81 109
e 81 114
e 81 118
e 81 126
e 81 136
e 81 138
e 81 145
e 81 155
e 81 169
e 81 177
e 81 182
e 81 186
e 81 194
e 82 92
e 82 113
e 82 118
e 82 123
e 82 141
e 82 143
e 82 146
e 82 159
e 82 163
e 82 164
e 82 166
e 83 100
e 83 113
e 83 114
e 83 116
e 83 129
e 83 132
e 83 135
e 83 143
e 83 144
e 83 146
e 83 152
e 83 156
e 83 177
e 83 192
e 83 194
e 84 86
e 84 89
e 84 117
e 84 122
e 84 132
e 84 176
e 84 186
e 84 190
e 84 193
e 85 87
e 85 99
e 85 109
e 85 111
e 85 121
e 85 130
e 85 133
e 85 135
e 85 140
e 85 144
e 85 151
e 85 163
e 85 166
e 85 167
e 85 173
e 85 191
e 85 193
e 86 93
e 86 111
e 86 115
e 86 116
e 86 127
e 86 132
e 86 146
e 86 150
e 86 160
e 86 162
e 86 167
e 86 168
e 86 174
e 86 176
e 86 193
e 86 194
e 86 196
e 87 89
e 87 98
e 87 106
e 87 113
e 87 121
e 87 141
e 87 144
e 87 152
e 87 167
e 88 89
e 88 92
e 88 109
e 88 125
e 88 126
e 88 138
e 88 145
e 88 150
e 88 171
e 88 183
e 88 190
e 88 197
e 89 90
e 89 92
e 89 97
e 89 101
e 89 107
e 89 112
e 89 114
e 89 118
e 89 128
e 89 134
e 89 136
e 89 145
e 89 153
e 89 155
e 89 187
e 89 199
e 90 94
e 90 105
e 90 107
e 90 122
e 90 123
e 90 144
e 90 145
e 90 152
e 90 164
e 90 167
e 90 184
e 90 190
e 90 191
e 90 199
e 91 95
e 91 96
e 91 108
e 91 120
e 91 122
e 91 135
e 91 137
e 91 138
e 91 167
e 91 170
e 91 173
e 91 177
e 91 189
e 91 197
e 91 198
e 92 97
e 92 119
e 92 130
e 92 132
e 92 137
e 92 138
e 92 158
e 92 169
e 92 170
e 92 181
e 92 191
e 92 197
e 93 110
e 93 113
e 93 127
e 93 151
e 93 173
e 93 181
e 93 186
e 93 195
e 94 107
e 94 110
e 94 117
e 94 119
e 94 123
e 94 133
e 94 178
e 94 187
e 94 194
e 95 96
e 95 103
e 95 113
e 95 125
e 95 144
e 95 145
e 95 146
e 95 148
e 95 152
e 96 100
e 96 113
e 96 129
e 96 159
e 96 161
e 96 185
e 97 98
e 97 127
e 97 134
e 97 161
e 97 165
e 97 166
e 97 170
e 97 176
e 97 180
e 97 181
e 97 183
e 97 185
e 98 106
e 98 135
e 98 180
e 98 184
e 98 195
e 98 197
e 99 115
e 99 116
e 99 122
e 99 145
e 99 160
e 99 167
e 99 195
e 100 110
e 100 111
e 100 125
e 100 144
e 100 154
e 100 156
e 100 161
e 100 178
e 100 194
e 100 198
e 101 109
e 101 119
e 101 121
e 101 141
e 101 155
e 101 166
e 101 170
e 101 191
e 101 196
e 102 109
e 102 110
e 102 116
e 102 127
e 102 143
e 102 146
e 102 151
e 102 164
e 102 167
e 102 170
e 102 195
e 103 105
e 103 109
e 103 110
e 103 128
e 103 137
e 103 139
e 103 145
e 103 161
e 103 186
e 103 187
e 103 188
e 103 198
e 103 200
e 104 121
e 104 122
e 104 127
e 104 129
e 104 132
e 104 135
e 104 137
e 104 142
e 104 153
e 104 157
e 104 162
e 105 114
e 105 124
e 105 153
e 105 154
e 105 166
e 105 180
e 105 192
e 105 197
e 106 113
e 106 132
e 106 136
e 106 142
e 106 143
e 106 153
e 106 156
e 106 158
e 106 160
e 106 163
e 106 166
e 106 168
e 106 177
e 106 196
e 106 198
e 107 109
e 107 114
e 107 132
e 107 141
e 107 146
e 107 147
e 107 149
e 107 160
e 107 168
e 107 185
e 108 111
e 108 115
e 108 126
e 108 152
e 108 153
e 108 177
e 108 184
e 108 193
e 108 199
e 109 110
e 109 112
e 109 113
e 109 116
e 109 124
e 109 132
e 109 139
e 109 154
e 109 172
e 109 177
e 109 180
e 109 182
e 109 183
e 110 112
e 110 114
e 110 117
e 110 121
e 110 129
e 110 144
e 110 145
e 110 160
e 110 168
e 110 169
e 110 170
e 110 176
e 110 191
e 111 113
e 111 126
e 111 131
e 111 133
e 111 166
e 111 178
e 111 189
e 112 117
e 112 121
e 112 125
e 112 126
e 112 135
e 112 137
e 112 151
e 112 157
e 112 166
e 112 177
e 112 180
e 112 184
e 112 185
e 113 115
e 113 123
e 113 136
e 113 140
e 113 145
e 113 161
e 113 171
e 113 172
e 113 176
e 113 179
e 113 184
e 114 122
e 114 158
e 114 162
e 114 163
e 114 169
e 114 171
e 114 176
e 114 195
e 115 117
e 115 120
e 115 124
e 115 142
e 115 156
e 115 167
e 115 171
e 115 172
e 115 186
e 115 200
e 116 117
e 116 125
e 116 137
e 116 140
e 116 166
e 117 130
e 117 138
e 117 148
e 117 152
e 117 159
e 117 181
e 117 190
e 117 197
e 118 124
e 118 125
e 118 142
e 118 146
e 118 147
e 118 149
e 118 174
e 118 194
e 119 129
e 119 131
e 119 149
e 119 175
e 119 181
e 119 191
e 120 124
e 120 135
e 120 148
e 120 151
e 120 152
e 120 160
e 120 163
e 120 167
e 120 193
e 120 195
e 120 196
e 121 139
e 121 148
e 121 198
e 122 128
e 122 154
e 122 159
e 122 160
e 122 165
e 122 189
e 122 198
e 123 128
e 123 142
e 123 148
e 123 157
e 123 171
e 123 177
e 123 180
e 123 189
e 123 192
e 123 196
e 124 142
e 124 147
e 124 154
e 124 166
e 124 168
e 124 175
e 124 177
e 125 126
e 125 130
e 125 143
e 125 149
e 125 156
e 125 157
e 125 170
e 125 172
e 125 174
e 125 183
e 125 186
e 125 192
e 125 194
e 125 200
e 126 131
e 126 132
e 126 149
e 126 154
e 126 166
e 126 170
e 126 176
e 126 177
e 126 178
e 126 179
e 126 181
e 126 196
e 127 128
e 127 134
e 127 141
e 127 148
e 127 153
e 127 160
e 127 164
e 127 180
e 127 187
e 127 198
e 127 200
e 128 143
e 128 148
e 128 159
e 128 161
e 128 166
e 128 172
e 128 196
e 129 132
e 129 145
e 129 152
e 129 163
e 129 171
e 129 174
e 129 176
e 129 177
e 130 139
e 130 151
e 130 159
e 130 172
e 130 176
e 130 183
e 130 189
e 130 195
e 131 139
e 131 141
e 131 154
e 131 167
e 132 135
e 132 167
e 132 175
e 132 185
e 132 192
e 132 193
e 133 159
e 133 162
e 133 178
e 134 135
e 134 137
e 134 146
e 134 160
e 134 169
e 134 174
e 134 175
e 134 182
e 134 185
e 134 189
e 134 192
e 134 198
e 135 145
e 135 154
e 135 165
e 135 171
e 135 180
e 136 140
e 136 144
e 136 145
e 136 150
e 136 182
e 136 183
e 136 193
e 136 194
e 136 199
e 137 139
e 137 141
e 137 156
e 137 160
e 137 166
e 137 167
e 137 176
e 137 183
e 137 187
e 137 200
e 138 152
e 138 163
e 138 174
e 138 187
e 138 191
e 138 196
e 139 147
e 139 151
e 139 174
e 139 179
e 139 191
e 139 197
e 140 145
e 140 153
e 140 169
e 140 177
e 140 179
e 141 167
e 141 174
e 141 199
e 142 149
e 142 171
e 142 174
e 142 184
e 142 188
e 142 189
e 143 151
e 143 156
e 143 160
e 143 178
e 143 193
e 144 150
e 144 152
e 144 157
e 144 165
e 144 168
e 144 177
e 144 184
e 144 185
e 144 193
e 144 199
e 145 150
e 145 164
e 145 166
e 145 171
e 145 175
e 146 156
e 146 157
e 146 181
e 146 182
e 147 153
e 147 163
e 147 167
e 147 170
e 147 181
e 147 190
e 147 191
e 147 196
e 147 200
e 148 161
e 148 192
e 149 154
e 149 161
e 149 168
e 149 169
e 149 176
e 149 191
e 150 157
e 150 169
e 150 178
e 150 180
e 150 198
e 151 154
e 151 157
e 151 158
e 151 160
e 151 168
e 151 175
e 151 181
e 151 182
e 152 163
e 152 164
e 152 165
e 152 172
e 152 177
e 152 182
e 152 190
e 152 196
e 153 195
e 153 199
e 154 165
e 154 167
e 154 173
e 154 193
e 155 168
e 155 174
e 155 186
e 155 195
e 155 200
e 156 163
e 156 165
e 156 168
e 156 172
e 156 175
e 156 179
e 156 184
e 156 188
e 156 192
e 156 193
e 157 168
e 157 176
e 158 159
e 158 178
e 158 188
e 158 193
e 159 191
e 159 192
e 160 162
e 160 164
e 160 167
e 161 162
e 161 164
e 161 188
e 162 163
e 162 170
e 162 177
e 162 181
e 162 183
e 162 186
e 162 192
e 162 194
e 163 167
e 163 170
e 163 186
e 163 194
e 164 171
e 164 176
e 164 179
e 164 181
e 164 195
e 165 166
e 165 169
e 166 193
e 166 196
e 167 168
e 167 170
e 167 182
e 167 185
e 168 183
e 168 187
e 168 196
e 169 175
e 169 182
e 169 191
e 169 200
e 170 171
e 170 174
e 170 187
e 170 192
e 171 177
e 171 180
e 171 187
e 171 193
e 172 178
e 172 193
e 172 194
e 173 188
e 173 194
e 174 181
e 174 188
e 175 182
e 175 194
e 175 195
e 175 197
e 176 193
e 177 182
e 177 183
e 177 187
e 181 186
e 182 184
e 182 200
e 183 186
e 183 193
e 183 198
e 183 200
e 184 190
e 184 200
e 186 187
e 187 193
e 189 191
e 189 197
e 190 200
